; benchmark generated from python API
(set-info :status unknown)
(declare-fun x_months () Int)
(declare-fun x_beta () Int)
(assert
 (<= (- 1200) x_months))
(assert
 (>= 1199 x_months))
(assert
 (let ((?x3517 (mod x_months 48)))
 (let ((?x211 ((as const (Array Int Int)) 0)))
 (let ((?x213 (store ?x211 0 31)))
 (let ((?x216 (store ?x213 1 30)))
 (let ((?x218 (store ?x216 2 31)))
 (let ((?x220 (store ?x218 3 30)))
 (let ((?x222 (store ?x220 4 31)))
 (let ((?x224 (store ?x222 5 31)))
 (let ((?x226 (store ?x224 6 30)))
 (let ((?x228 (store ?x226 7 31)))
 (let ((?x230 (store ?x228 8 30)))
 (let ((?x232 (store ?x230 9 31)))
 (let ((?x234 (store ?x232 10 31)))
 (let ((?x237 (store ?x234 11 28)))
 (let ((?x239 (store ?x237 12 31)))
 (let ((?x241 (store ?x239 13 30)))
 (let ((?x243 (store ?x241 14 31)))
 (let ((?x245 (store ?x243 15 30)))
 (let ((?x247 (store ?x245 16 31)))
 (let ((?x249 (store ?x247 17 31)))
 (let ((?x251 (store ?x249 18 30)))
 (let ((?x253 (store ?x251 19 31)))
 (let ((?x255 (store ?x253 20 30)))
 (let ((?x257 (store ?x255 21 31)))
 (let ((?x259 (store ?x257 22 31)))
 (let ((?x261 (store ?x259 23 28)))
 (let ((?x263 (store ?x261 24 31)))
 (let ((?x265 (store ?x263 25 30)))
 (let ((?x267 (store ?x265 26 31)))
 (let ((?x269 (store ?x267 27 30)))
 (let ((?x270 (store ?x269 28 31)))
 (let ((?x272 (store ?x270 29 31)))
 (let ((?x273 (store ?x272 30 30)))
 (let ((?x274 (store ?x273 31 31)))
 (let ((?x276 (store ?x274 32 30)))
 (let ((?x278 (store ?x276 33 31)))
 (let ((?x280 (store ?x278 34 31)))
 (let ((?x282 (store ?x280 35 28)))
 (let ((?x284 (store ?x282 36 31)))
 (let ((?x286 (store ?x284 37 30)))
 (let ((?x288 (store ?x286 38 31)))
 (let ((?x290 (store ?x288 39 30)))
 (let ((?x292 (store ?x290 40 31)))
 (let ((?x294 (store ?x292 41 31)))
 (let ((?x296 (store ?x294 42 30)))
 (let ((?x298 (store ?x296 43 31)))
 (let ((?x300 (store ?x298 44 30)))
 (let ((?x302 (store ?x300 45 31)))
 (let ((?x304 (store ?x302 46 31)))
 (let ((?x306 (store ?x304 47 29)))
 (let ((?x3876 (select ?x306 ?x3517)))
 (let ((?x963 (ite (or (= 22802 (+ x_months 24003)) (= 25202 (+ x_months 24003))) 28 ?x3876)))
 (let (($x2753 (<= 0 x_beta)))
 (and $x2753 (< x_beta ?x963))))))))))))))))))))))))))))))))))))))))))))))))))))))))
(assert
 (let (($x2753 (<= 0 x_beta)))
 (let ((?x2034 (- (+ (* 2023 12) 1) 24003)))
 (let (($x4273 (= x_months ?x2034)))
 (or (> x_months ?x2034) (and $x4273 $x2753))))))
(assert
 (let ((?x2034 (- (+ (* 2023 12) 1) 24003)))
 (let (($x4273 (= x_months ?x2034)))
 (or (< x_months ?x2034) (and $x4273 (>= 30 x_beta))))))
(assert
 (let ((?x1295 (+ x_months 0)))
(let ((?x1440 (mod ?x1295 48)))
(let ((?x4686 (ite (> 22803 (+ ?x1295 24003)) 1 (ite (<= 25203 (+ ?x1295 24003)) (- 1) 0))))
(let ((?x211 ((as const (Array Int Int)) 0)))
(let ((?x213 (store ?x211 0 31)))
(let ((?x216 (store ?x213 1 30)))
(let ((?x218 (store ?x216 2 31)))
(let ((?x220 (store ?x218 3 30)))
(let ((?x222 (store ?x220 4 31)))
(let ((?x224 (store ?x222 5 31)))
(let ((?x226 (store ?x224 6 30)))
(let ((?x228 (store ?x226 7 31)))
(let ((?x230 (store ?x228 8 30)))
(let ((?x232 (store ?x230 9 31)))
(let ((?x234 (store ?x232 10 31)))
(let ((?x237 (store ?x234 11 28)))
(let ((?x239 (store ?x237 12 31)))
(let ((?x241 (store ?x239 13 30)))
(let ((?x243 (store ?x241 14 31)))
(let ((?x245 (store ?x243 15 30)))
(let ((?x247 (store ?x245 16 31)))
(let ((?x249 (store ?x247 17 31)))
(let ((?x251 (store ?x249 18 30)))
(let ((?x253 (store ?x251 19 31)))
(let ((?x255 (store ?x253 20 30)))
(let ((?x257 (store ?x255 21 31)))
(let ((?x259 (store ?x257 22 31)))
(let ((?x261 (store ?x259 23 28)))
(let ((?x263 (store ?x261 24 31)))
(let ((?x265 (store ?x263 25 30)))
(let ((?x267 (store ?x265 26 31)))
(let ((?x269 (store ?x267 27 30)))
(let ((?x270 (store ?x269 28 31)))
(let ((?x272 (store ?x270 29 31)))
(let ((?x273 (store ?x272 30 30)))
(let ((?x274 (store ?x273 31 31)))
(let ((?x276 (store ?x274 32 30)))
(let ((?x278 (store ?x276 33 31)))
(let ((?x280 (store ?x278 34 31)))
(let ((?x282 (store ?x280 35 28)))
(let ((?x284 (store ?x282 36 31)))
(let ((?x286 (store ?x284 37 30)))
(let ((?x288 (store ?x286 38 31)))
(let ((?x290 (store ?x288 39 30)))
(let ((?x292 (store ?x290 40 31)))
(let ((?x294 (store ?x292 41 31)))
(let ((?x296 (store ?x294 42 30)))
(let ((?x298 (store ?x296 43 31)))
(let ((?x300 (store ?x298 44 30)))
(let ((?x302 (store ?x300 45 31)))
(let ((?x304 (store ?x302 46 31)))
(let ((?x306 (store ?x304 47 29)))
(let ((?x3403 (ite (or (= 22802 (+ ?x1295 24003)) (= 25202 (+ ?x1295 24003))) 28 (select ?x306 ?x1440))))
(let ((?x1665 (- ?x3403 1)))
(let (($x2023 (> 0 x_beta)))
(let ((?x312 (store (store (store (store ?x211 0 0) 1 31) 2 61) 3 92)))
(let ((?x320 (store (store (store (store ?x312 4 122) 5 153) 6 184) 7 214)))
(let ((?x328 (store (store (store (store ?x320 8 245) 9 275) 10 306) 11 337)))
(let ((?x336 (store (store (store (store ?x328 12 365) 13 396) 14 426) 15 457)))
(let ((?x344 (store (store (store (store ?x336 16 487) 17 518) 18 549) 19 579)))
(let ((?x352 (store (store (store (store ?x344 20 610) 21 640) 22 671) 23 702)))
(let ((?x360 (store (store (store (store ?x352 24 730) 25 761) 26 791) 27 822)))
(let ((?x368 (store (store (store (store ?x360 28 852) 29 883) 30 914) 31 944)))
(let ((?x376 (store (store (store (store ?x368 32 975) 33 1005) 34 1036) 35 1067)))
(let ((?x384 (store (store (store (store ?x376 36 1095) 37 1126) 38 1156) 39 1187)))
(let ((?x392 (store (store (store (store ?x384 40 1217) 41 1248) 42 1279) 43 1309)))
(let ((?x400 (store (store (store (store ?x392 44 1340) 45 1370) 46 1401) 47 1432)))
(let ((?x4389 (+ (select ?x400 ?x1440) (ite $x2023 0 (ite (> x_beta ?x1665) ?x1665 x_beta)))))
(let ((?x4074 (+ (+ ?x4389 ?x4686) 30)))
(let ((?x602 (+ ?x1295 (* (div ?x4074 1461) 48))))
(let ((?x3820 (+ (+ ?x602 (- 1 ?x1440)) 24003)))
(let ((?x1258 (select ?x400 1)))
(let ((?x4447 (mod ?x4074 1461)))
(let (($x4374 (>= ?x4447 (+ ?x1258 (ite (> 22803 ?x3820) 1 (ite (<= 25203 ?x3820) (- 1) 0))))))
(let ((?x4401 (ite (> 22803 (+ (+ ?x602 (- 2 ?x1440)) 24003)) 1 (ite (<= 25203 (+ (+ ?x602 (- 2 ?x1440)) 24003)) (- 1) 0))))
(let ((?x3514 (select ?x400 2)))
(let ((?x1257 (ite (> 22803 (+ (+ ?x602 (- 3 ?x1440)) 24003)) 1 (ite (<= 25203 (+ (+ ?x602 (- 3 ?x1440)) 24003)) (- 1) 0))))
(let ((?x3675 (select ?x400 3)))
(let ((?x587 (ite (>= ?x4447 (+ ?x3675 ?x1257)) 3 (ite (>= ?x4447 (+ ?x3514 ?x4401)) 2 (ite $x4374 1 0)))))
(let ((?x3907 (ite (> 22803 (+ (+ ?x602 (- 4 ?x1440)) 24003)) 1 (ite (<= 25203 (+ (+ ?x602 (- 4 ?x1440)) 24003)) (- 1) 0))))
(let ((?x4029 (select ?x400 4)))
(let ((?x4418 (ite (> 22803 (+ (+ ?x602 (- 5 ?x1440)) 24003)) 1 (ite (<= 25203 (+ (+ ?x602 (- 5 ?x1440)) 24003)) (- 1) 0))))
(let ((?x600 (select ?x400 5)))
(let ((?x2285 (ite (>= ?x4447 (+ ?x600 ?x4418)) 5 (ite (>= ?x4447 (+ ?x4029 ?x3907)) 4 ?x587))))
(let ((?x2400 (ite (> 22803 (+ (+ ?x602 (- 6 ?x1440)) 24003)) 1 (ite (<= 25203 (+ (+ ?x602 (- 6 ?x1440)) 24003)) (- 1) 0))))
(let ((?x1839 (select ?x400 6)))
(let ((?x4763 (ite (> 22803 (+ (+ ?x602 (- 7 ?x1440)) 24003)) 1 (ite (<= 25203 (+ (+ ?x602 (- 7 ?x1440)) 24003)) (- 1) 0))))
(let ((?x2797 (select ?x400 7)))
(let ((?x4260 (ite (>= ?x4447 (+ ?x2797 ?x4763)) 7 (ite (>= ?x4447 (+ ?x1839 ?x2400)) 6 ?x2285))))
(let ((?x4758 (ite (> 22803 (+ (+ ?x602 (- 8 ?x1440)) 24003)) 1 (ite (<= 25203 (+ (+ ?x602 (- 8 ?x1440)) 24003)) (- 1) 0))))
(let ((?x2569 (select ?x400 8)))
(let ((?x733 (ite (> 22803 (+ (+ ?x602 (- 9 ?x1440)) 24003)) 1 (ite (<= 25203 (+ (+ ?x602 (- 9 ?x1440)) 24003)) (- 1) 0))))
(let ((?x3306 (select ?x400 9)))
(let ((?x4683 (ite (>= ?x4447 (+ ?x3306 ?x733)) 9 (ite (>= ?x4447 (+ ?x2569 ?x4758)) 8 ?x4260))))
(let ((?x2836 (ite (> 22803 (+ (+ ?x602 (- 10 ?x1440)) 24003)) 1 (ite (<= 25203 (+ (+ ?x602 (- 10 ?x1440)) 24003)) (- 1) 0))))
(let ((?x2978 (select ?x400 10)))
(let ((?x1618 (ite (> 22803 (+ (+ ?x602 (- 11 ?x1440)) 24003)) 1 (ite (<= 25203 (+ (+ ?x602 (- 11 ?x1440)) 24003)) (- 1) 0))))
(let ((?x1188 (select ?x400 11)))
(let ((?x2863 (ite (>= ?x4447 (+ ?x1188 ?x1618)) 11 (ite (>= ?x4447 (+ ?x2978 ?x2836)) 10 ?x4683))))
(let ((?x4755 (ite (> 22803 (+ (+ ?x602 (- 12 ?x1440)) 24003)) 1 (ite (<= 25203 (+ (+ ?x602 (- 12 ?x1440)) 24003)) (- 1) 0))))
(let ((?x1934 (select ?x400 12)))
(let ((?x4330 (ite (> 22803 (+ (+ ?x602 (- 13 ?x1440)) 24003)) 1 (ite (<= 25203 (+ (+ ?x602 (- 13 ?x1440)) 24003)) (- 1) 0))))
(let ((?x1586 (select ?x400 13)))
(let ((?x3882 (ite (>= ?x4447 (+ ?x1586 ?x4330)) 13 (ite (>= ?x4447 (+ ?x1934 ?x4755)) 12 ?x2863))))
(let ((?x2245 (ite (> 22803 (+ (+ ?x602 (- 14 ?x1440)) 24003)) 1 (ite (<= 25203 (+ (+ ?x602 (- 14 ?x1440)) 24003)) (- 1) 0))))
(let ((?x3150 (select ?x400 14)))
(let ((?x765 (ite (> 22803 (+ (+ ?x602 (- 15 ?x1440)) 24003)) 1 (ite (<= 25203 (+ (+ ?x602 (- 15 ?x1440)) 24003)) (- 1) 0))))
(let ((?x2352 (select ?x400 15)))
(let ((?x3356 (ite (>= ?x4447 (+ ?x2352 ?x765)) 15 (ite (>= ?x4447 (+ ?x3150 ?x2245)) 14 ?x3882))))
(let ((?x1154 (ite (> 22803 (+ (+ ?x602 (- 16 ?x1440)) 24003)) 1 (ite (<= 25203 (+ (+ ?x602 (- 16 ?x1440)) 24003)) (- 1) 0))))
(let ((?x3728 (select ?x400 16)))
(let ((?x2419 (ite (> 22803 (+ (+ ?x602 (- 17 ?x1440)) 24003)) 1 (ite (<= 25203 (+ (+ ?x602 (- 17 ?x1440)) 24003)) (- 1) 0))))
(let ((?x617 (select ?x400 17)))
(let ((?x3589 (ite (>= ?x4447 (+ ?x617 ?x2419)) 17 (ite (>= ?x4447 (+ ?x3728 ?x1154)) 16 ?x3356))))
(let ((?x2694 (ite (> 22803 (+ (+ ?x602 (- 18 ?x1440)) 24003)) 1 (ite (<= 25203 (+ (+ ?x602 (- 18 ?x1440)) 24003)) (- 1) 0))))
(let ((?x1042 (select ?x400 18)))
(let ((?x1178 (ite (> 22803 (+ (+ ?x602 (- 19 ?x1440)) 24003)) 1 (ite (<= 25203 (+ (+ ?x602 (- 19 ?x1440)) 24003)) (- 1) 0))))
(let ((?x4057 (select ?x400 19)))
(let ((?x4747 (ite (>= ?x4447 (+ ?x4057 ?x1178)) 19 (ite (>= ?x4447 (+ ?x1042 ?x2694)) 18 ?x3589))))
(let ((?x4745 (ite (> 22803 (+ (+ ?x602 (- 20 ?x1440)) 24003)) 1 (ite (<= 25203 (+ (+ ?x602 (- 20 ?x1440)) 24003)) (- 1) 0))))
(let ((?x3075 (select ?x400 20)))
(let ((?x4313 (ite (> 22803 (+ (+ ?x602 (- 21 ?x1440)) 24003)) 1 (ite (<= 25203 (+ (+ ?x602 (- 21 ?x1440)) 24003)) (- 1) 0))))
(let ((?x995 (select ?x400 21)))
(let ((?x1820 (ite (>= ?x4447 (+ ?x995 ?x4313)) 21 (ite (>= ?x4447 (+ ?x3075 ?x4745)) 20 ?x4747))))
(let ((?x4414 (ite (> 22803 (+ (+ ?x602 (- 22 ?x1440)) 24003)) 1 (ite (<= 25203 (+ (+ ?x602 (- 22 ?x1440)) 24003)) (- 1) 0))))
(let ((?x832 (select ?x400 22)))
(let ((?x3576 (ite (> 22803 (+ (+ ?x602 (- 23 ?x1440)) 24003)) 1 (ite (<= 25203 (+ (+ ?x602 (- 23 ?x1440)) 24003)) (- 1) 0))))
(let ((?x809 (select ?x400 23)))
(let ((?x1661 (ite (>= ?x4447 (+ ?x809 ?x3576)) 23 (ite (>= ?x4447 (+ ?x832 ?x4414)) 22 ?x1820))))
(let ((?x1613 (ite (> 22803 (+ (+ ?x602 (- 24 ?x1440)) 24003)) 1 (ite (<= 25203 (+ (+ ?x602 (- 24 ?x1440)) 24003)) (- 1) 0))))
(let ((?x2281 (select ?x400 24)))
(let ((?x2121 (ite (> 22803 (+ (+ ?x602 (- 25 ?x1440)) 24003)) 1 (ite (<= 25203 (+ (+ ?x602 (- 25 ?x1440)) 24003)) (- 1) 0))))
(let ((?x2169 (select ?x400 25)))
(let ((?x1250 (ite (>= ?x4447 (+ ?x2169 ?x2121)) 25 (ite (>= ?x4447 (+ ?x2281 ?x1613)) 24 ?x1661))))
(let ((?x3336 (ite (> 22803 (+ (+ ?x602 (- 26 ?x1440)) 24003)) 1 (ite (<= 25203 (+ (+ ?x602 (- 26 ?x1440)) 24003)) (- 1) 0))))
(let ((?x1376 (select ?x400 26)))
(let ((?x4566 (ite (> 22803 (+ (+ ?x602 (- 27 ?x1440)) 24003)) 1 (ite (<= 25203 (+ (+ ?x602 (- 27 ?x1440)) 24003)) (- 1) 0))))
(let ((?x3265 (select ?x400 27)))
(let ((?x4288 (ite (>= ?x4447 (+ ?x3265 ?x4566)) 27 (ite (>= ?x4447 (+ ?x1376 ?x3336)) 26 ?x1250))))
(let ((?x1680 (ite (> 22803 (+ (+ ?x602 (- 28 ?x1440)) 24003)) 1 (ite (<= 25203 (+ (+ ?x602 (- 28 ?x1440)) 24003)) (- 1) 0))))
(let ((?x1140 (select ?x400 28)))
(let ((?x4342 (ite (> 22803 (+ (+ ?x602 (- 29 ?x1440)) 24003)) 1 (ite (<= 25203 (+ (+ ?x602 (- 29 ?x1440)) 24003)) (- 1) 0))))
(let ((?x435 (select ?x400 29)))
(let ((?x2929 (ite (>= ?x4447 (+ ?x435 ?x4342)) 29 (ite (>= ?x4447 (+ ?x1140 ?x1680)) 28 ?x4288))))
(let ((?x1394 (ite (> 22803 (+ (+ ?x602 (- 30 ?x1440)) 24003)) 1 (ite (<= 25203 (+ (+ ?x602 (- 30 ?x1440)) 24003)) (- 1) 0))))
(let ((?x4157 (select ?x400 30)))
(let ((?x3672 (ite (> 22803 (+ (+ ?x602 (- 31 ?x1440)) 24003)) 1 (ite (<= 25203 (+ (+ ?x602 (- 31 ?x1440)) 24003)) (- 1) 0))))
(let ((?x3738 (select ?x400 31)))
(let ((?x1914 (ite (>= ?x4447 (+ ?x3738 ?x3672)) 31 (ite (>= ?x4447 (+ ?x4157 ?x1394)) 30 ?x2929))))
(let ((?x3393 (ite (> 22803 (+ (+ ?x602 (- 32 ?x1440)) 24003)) 1 (ite (<= 25203 (+ (+ ?x602 (- 32 ?x1440)) 24003)) (- 1) 0))))
(let ((?x1396 (select ?x400 32)))
(let ((?x4215 (ite (> 22803 (+ (+ ?x602 (- 33 ?x1440)) 24003)) 1 (ite (<= 25203 (+ (+ ?x602 (- 33 ?x1440)) 24003)) (- 1) 0))))
(let ((?x612 (select ?x400 33)))
(let ((?x4175 (ite (>= ?x4447 (+ ?x612 ?x4215)) 33 (ite (>= ?x4447 (+ ?x1396 ?x3393)) 32 ?x1914))))
(let ((?x1128 (ite (> 22803 (+ (+ ?x602 (- 34 ?x1440)) 24003)) 1 (ite (<= 25203 (+ (+ ?x602 (- 34 ?x1440)) 24003)) (- 1) 0))))
(let ((?x1667 (select ?x400 34)))
(let ((?x1454 (ite (> 22803 (+ (+ ?x602 (- 35 ?x1440)) 24003)) 1 (ite (<= 25203 (+ (+ ?x602 (- 35 ?x1440)) 24003)) (- 1) 0))))
(let ((?x3149 (select ?x400 35)))
(let ((?x3668 (ite (>= ?x4447 (+ ?x3149 ?x1454)) 35 (ite (>= ?x4447 (+ ?x1667 ?x1128)) 34 ?x4175))))
(let ((?x1582 (ite (> 22803 (+ (+ ?x602 (- 36 ?x1440)) 24003)) 1 (ite (<= 25203 (+ (+ ?x602 (- 36 ?x1440)) 24003)) (- 1) 0))))
(let ((?x2277 (select ?x400 36)))
(let ((?x2021 (ite (> 22803 (+ (+ ?x602 (- 37 ?x1440)) 24003)) 1 (ite (<= 25203 (+ (+ ?x602 (- 37 ?x1440)) 24003)) (- 1) 0))))
(let ((?x1253 (select ?x400 37)))
(let ((?x3016 (ite (>= ?x4447 (+ ?x1253 ?x2021)) 37 (ite (>= ?x4447 (+ ?x2277 ?x1582)) 36 ?x3668))))
(let ((?x3115 (ite (> 22803 (+ (+ ?x602 (- 38 ?x1440)) 24003)) 1 (ite (<= 25203 (+ (+ ?x602 (- 38 ?x1440)) 24003)) (- 1) 0))))
(let ((?x3537 (select ?x400 38)))
(let ((?x4733 (ite (> 22803 (+ (+ ?x602 (- 39 ?x1440)) 24003)) 1 (ite (<= 25203 (+ (+ ?x602 (- 39 ?x1440)) 24003)) (- 1) 0))))
(let ((?x1456 (select ?x400 39)))
(let ((?x4648 (ite (>= ?x4447 (+ ?x1456 ?x4733)) 39 (ite (>= ?x4447 (+ ?x3537 ?x3115)) 38 ?x3016))))
(let ((?x4581 (ite (> 22803 (+ (+ ?x602 (- 40 ?x1440)) 24003)) 1 (ite (<= 25203 (+ (+ ?x602 (- 40 ?x1440)) 24003)) (- 1) 0))))
(let ((?x2007 (select ?x400 40)))
(let ((?x3201 (ite (> 22803 (+ (+ ?x602 (- 41 ?x1440)) 24003)) 1 (ite (<= 25203 (+ (+ ?x602 (- 41 ?x1440)) 24003)) (- 1) 0))))
(let ((?x2334 (select ?x400 41)))
(let ((?x1749 (ite (>= ?x4447 (+ ?x2334 ?x3201)) 41 (ite (>= ?x4447 (+ ?x2007 ?x4581)) 40 ?x4648))))
(let ((?x3245 (ite (> 22803 (+ (+ ?x602 (- 42 ?x1440)) 24003)) 1 (ite (<= 25203 (+ (+ ?x602 (- 42 ?x1440)) 24003)) (- 1) 0))))
(let ((?x3300 (select ?x400 42)))
(let ((?x1329 (ite (> 22803 (+ (+ ?x602 (- 43 ?x1440)) 24003)) 1 (ite (<= 25203 (+ (+ ?x602 (- 43 ?x1440)) 24003)) (- 1) 0))))
(let ((?x1503 (select ?x400 43)))
(let ((?x4520 (ite (>= ?x4447 (+ ?x1503 ?x1329)) 43 (ite (>= ?x4447 (+ ?x3300 ?x3245)) 42 ?x1749))))
(let ((?x980 (ite (> 22803 (+ (+ ?x602 (- 44 ?x1440)) 24003)) 1 (ite (<= 25203 (+ (+ ?x602 (- 44 ?x1440)) 24003)) (- 1) 0))))
(let ((?x3450 (select ?x400 44)))
(let ((?x1036 (ite (> 22803 (+ (+ ?x602 (- 45 ?x1440)) 24003)) 1 (ite (<= 25203 (+ (+ ?x602 (- 45 ?x1440)) 24003)) (- 1) 0))))
(let ((?x3123 (select ?x400 45)))
(let ((?x2472 (ite (>= ?x4447 (+ ?x3123 ?x1036)) 45 (ite (>= ?x4447 (+ ?x3450 ?x980)) 44 ?x4520))))
(let ((?x1297 (ite (> 22803 (+ (+ ?x602 (- 46 ?x1440)) 24003)) 1 (ite (<= 25203 (+ (+ ?x602 (- 46 ?x1440)) 24003)) (- 1) 0))))
(let ((?x4699 (select ?x400 46)))
(let ((?x4075 (ite (> 22803 (+ (+ ?x602 (- 47 ?x1440)) 24003)) 1 (ite (<= 25203 (+ (+ ?x602 (- 47 ?x1440)) 24003)) (- 1) 0))))
(let ((?x416 (select ?x400 47)))
(let ((?x1895 (ite (>= ?x4447 (+ ?x416 ?x4075)) 47 (ite (>= ?x4447 (+ ?x4699 ?x1297)) 46 ?x2472))))
(let ((?x2967 (+ ?x602 (- ?x1895 ?x1440))))
(let ((?x1830 (+ ?x2967 24003)))
(let ((?x813 (+ (select ?x400 ?x1895) (ite (> 22803 ?x1830) 1 (ite (<= 25203 ?x1830) (- 1) 0)))))
(let ((?x1636 (- ?x4447 ?x813)))
(let ((?x2937 (ite (or (= 22802 ?x1830) (= 25202 ?x1830)) 28 (select ?x306 ?x1895))))
(let ((?x4216 (+ x_months 1)))
(let ((?x650 (mod ?x4216 48)))
(let ((?x2081 (ite (> 22803 (+ ?x4216 24003)) 1 (ite (<= 25203 (+ ?x4216 24003)) (- 1) 0))))
(let ((?x3579 (ite (or (= 22802 (+ ?x4216 24003)) (= 25202 (+ ?x4216 24003))) 28 (select ?x306 ?x650))))
(let ((?x4280 (- ?x3579 1)))
(let ((?x1357 (+ (select ?x400 ?x650) (ite $x2023 0 (ite (> x_beta ?x4280) ?x4280 x_beta)))))
(let ((?x2668 (+ (+ ?x1357 ?x2081) 0)))
(let ((?x1298 (+ ?x4216 (* (div ?x2668 1461) 48))))
(let ((?x2853 (+ (+ ?x1298 (- 1 ?x650)) 24003)))
(let ((?x508 (mod ?x2668 1461)))
(let (($x1702 (>= ?x508 (+ ?x1258 (ite (> 22803 ?x2853) 1 (ite (<= 25203 ?x2853) (- 1) 0))))))
(let ((?x2991 (ite (> 22803 (+ (+ ?x1298 (- 2 ?x650)) 24003)) 1 (ite (<= 25203 (+ (+ ?x1298 (- 2 ?x650)) 24003)) (- 1) 0))))
(let ((?x1662 (ite (> 22803 (+ (+ ?x1298 (- 3 ?x650)) 24003)) 1 (ite (<= 25203 (+ (+ ?x1298 (- 3 ?x650)) 24003)) (- 1) 0))))
(let ((?x2177 (ite (>= ?x508 (+ ?x3675 ?x1662)) 3 (ite (>= ?x508 (+ ?x3514 ?x2991)) 2 (ite $x1702 1 0)))))
(let ((?x1204 (ite (> 22803 (+ (+ ?x1298 (- 4 ?x650)) 24003)) 1 (ite (<= 25203 (+ (+ ?x1298 (- 4 ?x650)) 24003)) (- 1) 0))))
(let ((?x654 (ite (> 22803 (+ (+ ?x1298 (- 5 ?x650)) 24003)) 1 (ite (<= 25203 (+ (+ ?x1298 (- 5 ?x650)) 24003)) (- 1) 0))))
(let ((?x2101 (ite (>= ?x508 (+ ?x600 ?x654)) 5 (ite (>= ?x508 (+ ?x4029 ?x1204)) 4 ?x2177))))
(let ((?x1148 (ite (> 22803 (+ (+ ?x1298 (- 6 ?x650)) 24003)) 1 (ite (<= 25203 (+ (+ ?x1298 (- 6 ?x650)) 24003)) (- 1) 0))))
(let ((?x3169 (ite (> 22803 (+ (+ ?x1298 (- 7 ?x650)) 24003)) 1 (ite (<= 25203 (+ (+ ?x1298 (- 7 ?x650)) 24003)) (- 1) 0))))
(let ((?x1560 (ite (>= ?x508 (+ ?x2797 ?x3169)) 7 (ite (>= ?x508 (+ ?x1839 ?x1148)) 6 ?x2101))))
(let ((?x3295 (ite (> 22803 (+ (+ ?x1298 (- 8 ?x650)) 24003)) 1 (ite (<= 25203 (+ (+ ?x1298 (- 8 ?x650)) 24003)) (- 1) 0))))
(let ((?x3520 (ite (> 22803 (+ (+ ?x1298 (- 9 ?x650)) 24003)) 1 (ite (<= 25203 (+ (+ ?x1298 (- 9 ?x650)) 24003)) (- 1) 0))))
(let ((?x1195 (ite (>= ?x508 (+ ?x3306 ?x3520)) 9 (ite (>= ?x508 (+ ?x2569 ?x3295)) 8 ?x1560))))
(let ((?x1510 (ite (> 22803 (+ (+ ?x1298 (- 10 ?x650)) 24003)) 1 (ite (<= 25203 (+ (+ ?x1298 (- 10 ?x650)) 24003)) (- 1) 0))))
(let ((?x1609 (ite (> 22803 (+ (+ ?x1298 (- 11 ?x650)) 24003)) 1 (ite (<= 25203 (+ (+ ?x1298 (- 11 ?x650)) 24003)) (- 1) 0))))
(let ((?x2381 (ite (>= ?x508 (+ ?x1188 ?x1609)) 11 (ite (>= ?x508 (+ ?x2978 ?x1510)) 10 ?x1195))))
(let ((?x3371 (ite (> 22803 (+ (+ ?x1298 (- 12 ?x650)) 24003)) 1 (ite (<= 25203 (+ (+ ?x1298 (- 12 ?x650)) 24003)) (- 1) 0))))
(let ((?x3827 (ite (> 22803 (+ (+ ?x1298 (- 13 ?x650)) 24003)) 1 (ite (<= 25203 (+ (+ ?x1298 (- 13 ?x650)) 24003)) (- 1) 0))))
(let ((?x2446 (ite (>= ?x508 (+ ?x1586 ?x3827)) 13 (ite (>= ?x508 (+ ?x1934 ?x3371)) 12 ?x2381))))
(let ((?x3311 (ite (> 22803 (+ (+ ?x1298 (- 14 ?x650)) 24003)) 1 (ite (<= 25203 (+ (+ ?x1298 (- 14 ?x650)) 24003)) (- 1) 0))))
(let ((?x2243 (ite (> 22803 (+ (+ ?x1298 (- 15 ?x650)) 24003)) 1 (ite (<= 25203 (+ (+ ?x1298 (- 15 ?x650)) 24003)) (- 1) 0))))
(let ((?x2773 (ite (>= ?x508 (+ ?x2352 ?x2243)) 15 (ite (>= ?x508 (+ ?x3150 ?x3311)) 14 ?x2446))))
(let ((?x2454 (ite (> 22803 (+ (+ ?x1298 (- 16 ?x650)) 24003)) 1 (ite (<= 25203 (+ (+ ?x1298 (- 16 ?x650)) 24003)) (- 1) 0))))
(let ((?x1799 (ite (> 22803 (+ (+ ?x1298 (- 17 ?x650)) 24003)) 1 (ite (<= 25203 (+ (+ ?x1298 (- 17 ?x650)) 24003)) (- 1) 0))))
(let ((?x2181 (ite (>= ?x508 (+ ?x617 ?x1799)) 17 (ite (>= ?x508 (+ ?x3728 ?x2454)) 16 ?x2773))))
(let ((?x1513 (ite (> 22803 (+ (+ ?x1298 (- 18 ?x650)) 24003)) 1 (ite (<= 25203 (+ (+ ?x1298 (- 18 ?x650)) 24003)) (- 1) 0))))
(let ((?x2714 (ite (> 22803 (+ (+ ?x1298 (- 19 ?x650)) 24003)) 1 (ite (<= 25203 (+ (+ ?x1298 (- 19 ?x650)) 24003)) (- 1) 0))))
(let ((?x2414 (ite (>= ?x508 (+ ?x4057 ?x2714)) 19 (ite (>= ?x508 (+ ?x1042 ?x1513)) 18 ?x2181))))
(let ((?x863 (ite (> 22803 (+ (+ ?x1298 (- 20 ?x650)) 24003)) 1 (ite (<= 25203 (+ (+ ?x1298 (- 20 ?x650)) 24003)) (- 1) 0))))
(let ((?x800 (ite (> 22803 (+ (+ ?x1298 (- 21 ?x650)) 24003)) 1 (ite (<= 25203 (+ (+ ?x1298 (- 21 ?x650)) 24003)) (- 1) 0))))
(let ((?x3667 (ite (>= ?x508 (+ ?x995 ?x800)) 21 (ite (>= ?x508 (+ ?x3075 ?x863)) 20 ?x2414))))
(let ((?x1027 (ite (> 22803 (+ (+ ?x1298 (- 22 ?x650)) 24003)) 1 (ite (<= 25203 (+ (+ ?x1298 (- 22 ?x650)) 24003)) (- 1) 0))))
(let ((?x3039 (ite (> 22803 (+ (+ ?x1298 (- 23 ?x650)) 24003)) 1 (ite (<= 25203 (+ (+ ?x1298 (- 23 ?x650)) 24003)) (- 1) 0))))
(let ((?x2856 (ite (>= ?x508 (+ ?x809 ?x3039)) 23 (ite (>= ?x508 (+ ?x832 ?x1027)) 22 ?x3667))))
(let ((?x1500 (ite (> 22803 (+ (+ ?x1298 (- 24 ?x650)) 24003)) 1 (ite (<= 25203 (+ (+ ?x1298 (- 24 ?x650)) 24003)) (- 1) 0))))
(let ((?x4201 (ite (> 22803 (+ (+ ?x1298 (- 25 ?x650)) 24003)) 1 (ite (<= 25203 (+ (+ ?x1298 (- 25 ?x650)) 24003)) (- 1) 0))))
(let ((?x3701 (ite (>= ?x508 (+ ?x2169 ?x4201)) 25 (ite (>= ?x508 (+ ?x2281 ?x1500)) 24 ?x2856))))
(let ((?x2251 (ite (> 22803 (+ (+ ?x1298 (- 26 ?x650)) 24003)) 1 (ite (<= 25203 (+ (+ ?x1298 (- 26 ?x650)) 24003)) (- 1) 0))))
(let ((?x518 (ite (> 22803 (+ (+ ?x1298 (- 27 ?x650)) 24003)) 1 (ite (<= 25203 (+ (+ ?x1298 (- 27 ?x650)) 24003)) (- 1) 0))))
(let ((?x1883 (ite (>= ?x508 (+ ?x3265 ?x518)) 27 (ite (>= ?x508 (+ ?x1376 ?x2251)) 26 ?x3701))))
(let ((?x2416 (ite (> 22803 (+ (+ ?x1298 (- 28 ?x650)) 24003)) 1 (ite (<= 25203 (+ (+ ?x1298 (- 28 ?x650)) 24003)) (- 1) 0))))
(let ((?x2046 (ite (> 22803 (+ (+ ?x1298 (- 29 ?x650)) 24003)) 1 (ite (<= 25203 (+ (+ ?x1298 (- 29 ?x650)) 24003)) (- 1) 0))))
(let ((?x782 (ite (>= ?x508 (+ ?x435 ?x2046)) 29 (ite (>= ?x508 (+ ?x1140 ?x2416)) 28 ?x1883))))
(let ((?x932 (ite (> 22803 (+ (+ ?x1298 (- 30 ?x650)) 24003)) 1 (ite (<= 25203 (+ (+ ?x1298 (- 30 ?x650)) 24003)) (- 1) 0))))
(let ((?x2320 (ite (> 22803 (+ (+ ?x1298 (- 31 ?x650)) 24003)) 1 (ite (<= 25203 (+ (+ ?x1298 (- 31 ?x650)) 24003)) (- 1) 0))))
(let ((?x2392 (ite (>= ?x508 (+ ?x3738 ?x2320)) 31 (ite (>= ?x508 (+ ?x4157 ?x932)) 30 ?x782))))
(let ((?x817 (ite (> 22803 (+ (+ ?x1298 (- 32 ?x650)) 24003)) 1 (ite (<= 25203 (+ (+ ?x1298 (- 32 ?x650)) 24003)) (- 1) 0))))
(let ((?x2114 (ite (> 22803 (+ (+ ?x1298 (- 33 ?x650)) 24003)) 1 (ite (<= 25203 (+ (+ ?x1298 (- 33 ?x650)) 24003)) (- 1) 0))))
(let ((?x2504 (ite (>= ?x508 (+ ?x612 ?x2114)) 33 (ite (>= ?x508 (+ ?x1396 ?x817)) 32 ?x2392))))
(let ((?x2870 (ite (> 22803 (+ (+ ?x1298 (- 34 ?x650)) 24003)) 1 (ite (<= 25203 (+ (+ ?x1298 (- 34 ?x650)) 24003)) (- 1) 0))))
(let ((?x483 (ite (> 22803 (+ (+ ?x1298 (- 35 ?x650)) 24003)) 1 (ite (<= 25203 (+ (+ ?x1298 (- 35 ?x650)) 24003)) (- 1) 0))))
(let ((?x2398 (ite (>= ?x508 (+ ?x3149 ?x483)) 35 (ite (>= ?x508 (+ ?x1667 ?x2870)) 34 ?x2504))))
(let ((?x426 (ite (> 22803 (+ (+ ?x1298 (- 36 ?x650)) 24003)) 1 (ite (<= 25203 (+ (+ ?x1298 (- 36 ?x650)) 24003)) (- 1) 0))))
(let ((?x3791 (ite (> 22803 (+ (+ ?x1298 (- 37 ?x650)) 24003)) 1 (ite (<= 25203 (+ (+ ?x1298 (- 37 ?x650)) 24003)) (- 1) 0))))
(let ((?x562 (ite (>= ?x508 (+ ?x1253 ?x3791)) 37 (ite (>= ?x508 (+ ?x2277 ?x426)) 36 ?x2398))))
(let ((?x3893 (ite (> 22803 (+ (+ ?x1298 (- 38 ?x650)) 24003)) 1 (ite (<= 25203 (+ (+ ?x1298 (- 38 ?x650)) 24003)) (- 1) 0))))
(let ((?x1470 (ite (> 22803 (+ (+ ?x1298 (- 39 ?x650)) 24003)) 1 (ite (<= 25203 (+ (+ ?x1298 (- 39 ?x650)) 24003)) (- 1) 0))))
(let ((?x3073 (ite (>= ?x508 (+ ?x1456 ?x1470)) 39 (ite (>= ?x508 (+ ?x3537 ?x3893)) 38 ?x562))))
(let ((?x1584 (ite (> 22803 (+ (+ ?x1298 (- 40 ?x650)) 24003)) 1 (ite (<= 25203 (+ (+ ?x1298 (- 40 ?x650)) 24003)) (- 1) 0))))
(let ((?x2282 (ite (> 22803 (+ (+ ?x1298 (- 41 ?x650)) 24003)) 1 (ite (<= 25203 (+ (+ ?x1298 (- 41 ?x650)) 24003)) (- 1) 0))))
(let ((?x2262 (ite (>= ?x508 (+ ?x2334 ?x2282)) 41 (ite (>= ?x508 (+ ?x2007 ?x1584)) 40 ?x3073))))
(let ((?x3065 (ite (> 22803 (+ (+ ?x1298 (- 42 ?x650)) 24003)) 1 (ite (<= 25203 (+ (+ ?x1298 (- 42 ?x650)) 24003)) (- 1) 0))))
(let ((?x3316 (ite (> 22803 (+ (+ ?x1298 (- 43 ?x650)) 24003)) 1 (ite (<= 25203 (+ (+ ?x1298 (- 43 ?x650)) 24003)) (- 1) 0))))
(let ((?x2837 (ite (>= ?x508 (+ ?x1503 ?x3316)) 43 (ite (>= ?x508 (+ ?x3300 ?x3065)) 42 ?x2262))))
(let ((?x4042 (ite (> 22803 (+ (+ ?x1298 (- 44 ?x650)) 24003)) 1 (ite (<= 25203 (+ (+ ?x1298 (- 44 ?x650)) 24003)) (- 1) 0))))
(let ((?x1282 (ite (> 22803 (+ (+ ?x1298 (- 45 ?x650)) 24003)) 1 (ite (<= 25203 (+ (+ ?x1298 (- 45 ?x650)) 24003)) (- 1) 0))))
(let ((?x3153 (ite (>= ?x508 (+ ?x3123 ?x1282)) 45 (ite (>= ?x508 (+ ?x3450 ?x4042)) 44 ?x2837))))
(let ((?x4701 (ite (> 22803 (+ (+ ?x1298 (- 46 ?x650)) 24003)) 1 (ite (<= 25203 (+ (+ ?x1298 (- 46 ?x650)) 24003)) (- 1) 0))))
(let ((?x3581 (ite (> 22803 (+ (+ ?x1298 (- 47 ?x650)) 24003)) 1 (ite (<= 25203 (+ (+ ?x1298 (- 47 ?x650)) 24003)) (- 1) 0))))
(let ((?x1937 (ite (>= ?x508 (+ ?x416 ?x3581)) 47 (ite (>= ?x508 (+ ?x4699 ?x4701)) 46 ?x3153))))
(let ((?x2788 (+ ?x1298 (- ?x1937 ?x650))))
(let ((?x631 (+ ?x2788 24003)))
(let ((?x4741 (+ (select ?x400 ?x1937) (ite (> 22803 ?x631) 1 (ite (<= 25203 ?x631) (- 1) 0)))))
(let ((?x4740 (- ?x508 ?x4741)))
(let ((?x3278 (ite (or (= 22802 ?x631) (= 25202 ?x631)) 28 (select ?x306 ?x1937))))
(let (($x1185 (= (ite (= 1 (ite (>= ?x4740 ?x3278) 1 0)) (- ?x4740 ?x3278) ?x4740) (ite (= 1 (ite (>= ?x1636 ?x2937) 1 0)) (- ?x1636 ?x2937) ?x1636))))
(let (($x3766 (= (+ ?x2788 (ite (>= ?x4740 ?x3278) 1 0)) (+ ?x2967 (ite (>= ?x1636 ?x2937) 1 0)))))
(not (and $x3766 $x1185))))))))))))))))))))))))))))))))))))))))))))))))))))))))))))))))))))))))))))))))))))))))))))))))))))))))))))))))))))))))))))))))))))))))))))))))))))))))))))))))))))))))))))))))))))))))))))))))))))))))))))))))))))))))))))))))))))))))))))))))))))))))))))))))))))))))))))))))))))))))))))
(check-sat)
